c Staircase at least one
p cnf 36 62
-5 21 0
-4 21 0
-21 5 4 0
-21 20 0
-3 20 0
-20 21 3 0
-20 19 0
-2 19 0
-19 20 2 0
-10 24 0
-9 24 0
-24 10 9 0
-24 23 0
-8 23 0
-23 24 8 0
-23 22 0
-7 22 0
-22 23 7 0
-15 27 0
-14 27 0
-27 15 14 0
-27 26 0
-13 26 0
-26 27 13 0
-26 25 0
-12 25 0
-25 26 12 0
-6 29 0
-7 29 0
-29 6 7 0
-29 30 0
-8 30 0
-30 29 8 0
-30 31 0
-9 31 0
-31 30 9 0
-11 32 0
-12 32 0
-32 11 12 0
-32 33 0
-13 33 0
-33 32 13 0
-33 34 0
-14 34 0
-34 33 14 0
-16 35 0
-17 35 0
-35 16 17 0
1 19 0
19 6 0
20 29 0
21 30 0
5 31 0
6 22 31 0
22 11 0
23 32 0
24 33 0
10 34 0
11 25 34 0
25 16 0
26 35 0
27 36 0
